(set-logic QF_S)
(declare-fun var0 () String)
(assert (RegexIn var0 (RegexConcat (RegexStar (RegexPlus (Str2Reg "000"))) (RegexConcat (RegexPlus (RegexPlus (Str2Reg "1"))) (RegexConcat (RegexStar (RegexUnion (Str2Reg "22") (Str2Reg "333"))) (RegexConcat (RegexUnion (RegexStar (Str2Reg "444")) (RegexStar (Str2Reg "555"))) (RegexConcat (RegexUnion (RegexPlus (Str2Reg "66")) (RegexPlus (Str2Reg "777"))) (RegexConcat (RegexStar (RegexPlus (Str2Reg "88"))) (RegexConcat (RegexPlus (RegexPlus (Str2Reg "9"))) (RegexConcat (RegexStar (RegexPlus (Str2Reg "a"))) (RegexConcat (RegexPlus (RegexStar (Str2Reg "b"))) (RegexConcat (RegexUnion (RegexStar (Str2Reg "ccc")) (RegexStar (Str2Reg "d"))) (RegexConcat (RegexStar (RegexUnion (Str2Reg "ee") (Str2Reg "ff"))) (RegexConcat (RegexStar (RegexStar (Str2Reg "gg"))) (RegexConcat (RegexUnion (RegexStar (Str2Reg "hh")) (RegexStar (Str2Reg "i"))) (RegexConcat (RegexUnion (RegexUnion (Str2Reg "jjj") (Str2Reg "kk")) (RegexUnion (Str2Reg "ll") (Str2Reg "mmm"))) (RegexConcat (RegexStar (RegexPlus (Str2Reg "n"))) (RegexConcat (RegexPlus (RegexUnion (Str2Reg "ooo") (Str2Reg "ppp"))) (RegexConcat (RegexPlus (RegexPlus (Str2Reg "qq"))) (RegexConcat (RegexUnion (RegexStar (Str2Reg "r")) (RegexStar (Str2Reg "sss"))) (RegexConcat (RegexUnion (RegexPlus (Str2Reg "tt")) (RegexPlus (Str2Reg "u"))) (RegexConcat (RegexUnion (RegexPlus (Str2Reg "v")) (RegexPlus (Str2Reg "www"))) (RegexConcat (RegexPlus (RegexStar (Str2Reg "xxx"))) (RegexConcat (RegexUnion (RegexUnion (Str2Reg "yyy") (Str2Reg "zzz")) (RegexUnion (Str2Reg "A") (Str2Reg "B"))) (RegexConcat (RegexStar (RegexStar (Str2Reg "CCC"))) (RegexConcat (RegexStar (RegexUnion (Str2Reg "D") (Str2Reg "E"))) (RegexConcat (RegexPlus (RegexStar (Str2Reg "F"))) (RegexConcat (RegexStar (RegexStar (Str2Reg "GGG"))) (RegexConcat (RegexUnion (RegexStar (Str2Reg "H")) (RegexStar (Str2Reg "I"))) (RegexConcat (RegexUnion (RegexPlus (Str2Reg "JJ")) (RegexPlus (Str2Reg "KK"))) (RegexConcat (RegexPlus (RegexUnion (Str2Reg "L") (Str2Reg "M"))) (RegexConcat (RegexPlus (RegexPlus (Str2Reg "NN"))) (RegexConcat (RegexPlus (RegexPlus (Str2Reg "OO"))) (RegexConcat (RegexPlus (RegexPlus (Str2Reg "P"))) (RegexConcat (RegexUnion (RegexStar (Str2Reg "QQ")) (RegexStar (Str2Reg "RR"))) (RegexConcat (RegexUnion (RegexPlus (Str2Reg "S")) (RegexPlus (Str2Reg "T"))) (RegexConcat (RegexUnion (RegexStar (Str2Reg "U")) (RegexStar (Str2Reg "VVV"))) (RegexConcat (RegexPlus (RegexStar (Str2Reg "W"))) (RegexConcat (RegexStar (RegexPlus (Str2Reg "XXX"))) (RegexConcat (RegexUnion (RegexPlus (Str2Reg "YYY")) (RegexPlus (Str2Reg "ZZZ"))) (RegexConcat (RegexUnion (RegexStar (Str2Reg "!")) (RegexStar (Str2Reg "\"\""))) (RegexConcat (RegexUnion (RegexUnion (Str2Reg "##") (Str2Reg "$$")) (RegexUnion (Str2Reg "%%") (Str2Reg "&&"))) (RegexConcat (RegexUnion (RegexUnion (Str2Reg "'''") (Str2Reg "((")) (RegexUnion (Str2Reg ")))") (Str2Reg "***"))) (RegexConcat (RegexStar (RegexPlus (Str2Reg "+"))) (RegexConcat (RegexPlus (RegexStar (Str2Reg ","))) (RegexConcat (RegexUnion (RegexStar (Str2Reg "--")) (RegexStar (Str2Reg ".."))) (RegexConcat (RegexStar (RegexStar (Str2Reg "//"))) (RegexConcat (RegexUnion (RegexPlus (Str2Reg ":")) (RegexPlus (Str2Reg ";;"))) (RegexPlus (RegexUnion (Str2Reg "<<<") (Str2Reg "===")))))))))))))))))))))))))))))))))))))))))))))))))))
(check-sat)